%nprocshared=4
%chk=MeNO2_opt.chk
# opt freq scrf=(cpcm,solvent=nitromethane) def2svp m062x temperature=363.15

MeNO2 opt

0 1
 N                  0.16906300    0.00000600   -0.01143900
 O                  0.72901400    1.06971500    0.00298400
 O                  0.72847100   -1.06999400    0.00298400
 C                 -1.31794200    0.00026000   -0.00257600
 H                 -1.62140600   -0.00200700    1.05136200
 H                 -1.65705100    0.91186100   -0.49989400
 H                 -1.65722000   -0.90921900   -0.50368000

